a.sol
Problem:    a
Rows:       181
Columns:    216 (216 integer, 0 binary)
Non-zeros:  756
Status:     INTEGER OPTIMAL
Objective:  maximo = 492946 (MAXimum)

   No.   Row name        Activity     Lower bound   Upper bound
------ ------------    ------------- ------------- -------------
     1 maximo                 492946                             
     2 r1[1]                     308                        1000 
     3 r1[2]                       0                        1000 
     4 r1[3]                       0                        1000 
     5 r1[4]                       0                        1000 
     6 r1[5]                     422                        1000 
     7 r1[6]                     422                        1000 
     8 r1[7]                     200                        1000 
     9 r1[8]                    1000                        1000 
    10 r1[9]                       0                        1000 
    11 r1[10]                      0                        1000 
    12 r1[11]                    308                        1000 
    13 r1[12]                    308                        1000 
    14 r2[1]                    1000                        1000 
    15 r2[2]                     850                        1000 
    16 r2[3]                     850                        1000 
    17 r2[4]                     850                        1000 
    18 r2[5]                     656                        1000 
    19 r2[6]                     656                        1000 
    20 r2[7]                    1000                        1000 
    21 r2[8]                     200                        1000 
    22 r2[9]                     850                        1000 
    23 r2[10]                    850                        1000 
    24 r2[11]                   1000                        1000 
    25 r2[12]                   1000                        1000 
    26 r3[1]                       0                        1000 
    27 r3[2]                       0                        1000 
    28 r3[3]                       0                        1000 
    29 r3[4]                       0                        1000 
    30 r3[5]                       0                        1000 
    31 r3[6]                       0                        1000 
    32 r3[7]                       0                        1000 
    33 r3[8]                       0                        1000 
    34 r3[9]                       0                        1000 
    35 r3[10]                      0                        1000 
    36 r3[11]                      0                        1000 
    37 r3[12]                      0                        1000 
    38 r4[1]                0.879429                           1 
    39 r4[2]                0.553746                           1 
    40 r4[3]                0.553746                           1 
    41 r4[4]                0.553746                           1 
    42 r4[5]                0.849362                           1 
    43 r4[6]                0.849362                           1 
    44 r4[7]                0.685714                           1 
    45 r4[8]                0.685714                           1 
    46 r4[9]                0.553746                           1 
    47 r4[10]               0.553746                           1 
    48 r4[11]               0.879429                           1 
    49 r4[12]               0.879429                           1 
    50 r5[1]                 0.99982                           1 
    51 r5[2]                       1                           1 
    52 r5[3]                       1                           1 
    53 r5[4]                       1                           1 
    54 r5[5]                0.999873                           1 
    55 r5[6]                0.999873                           1 
    56 r5[7]                       1                           1 
    57 r5[8]                       1                           1 
    58 r5[9]                       1                           1 
    59 r5[10]                      1                           1 
    60 r5[11]                0.99982                           1 
    61 r5[12]                0.99982                           1 
    62 r6[1]                0.910667                           1 
    63 r6[2]                0.566667                           1 
    64 r6[3]                0.566667                           1 
    65 r6[4]                0.566667                           1 
    66 r6[5]                       1                           1 
    67 r6[6]                       1                           1 
    68 r6[7]                     0.6                           1 
    69 r6[8]                     0.6                           1 
    70 r6[9]                0.566667                           1 
    71 r6[10]               0.566667                           1 
    72 r6[11]               0.910667                           1 
    73 r6[12]               0.910667                           1 
    74 r7[1]                       0            -0             = 
    75 r7[2]                       0            -0             = 
    76 r7[3]                       0            -0             = 
    77 r7[4]                       0            -0             = 
    78 r7[5]                       0            -0             = 
    79 r7[6]                       0            -0             = 
    80 r7[7]                       0            -0             = 
    81 r7[8]                       0            -0             = 
    82 r7[9]                       0            -0             = 
    83 r7[10]                      0            -0             = 
    84 r7[11]                      0            -0             = 
    85 r7[12]                      0            -0             = 
    86 r8[1]                       0            -0             = 
    87 r8[2]                       0            -0             = 
    88 r8[3]                       0            -0             = 
    89 r8[4]                       0            -0             = 
    90 r8[5]                       0            -0             = 
    91 r8[6]                       0            -0             = 
    92 r8[7]                       0            -0             = 
    93 r8[8]                       0            -0             = 
    94 r8[9]                       0            -0             = 
    95 r8[10]                      0            -0             = 
    96 r8[11]                      0            -0             = 
    97 r8[12]                      0            -0             = 
    98 r9[1]                       0            -0             = 
    99 r9[2]                       0            -0             = 
   100 r9[3]                       0            -0             = 
   101 r9[4]                       0            -0             = 
   102 r9[5]                       0            -0             = 
   103 r9[6]                       0            -0             = 
   104 r9[7]                       0            -0             = 
   105 r9[8]                       0            -0             = 
   106 r9[9]                       0            -0             = 
   107 r9[10]                      0            -0             = 
   108 r9[11]                      0            -0             = 
   109 r9[12]                      0            -0             = 
   110 r10[1]                      0            -0             = 
   111 r10[2]                      0            -0             = 
   112 r10[3]                      0            -0             = 
   113 r10[4]                      0            -0             = 
   114 r10[5]                      0            -0             = 
   115 r10[6]                      0            -0             = 
   116 r10[7]                      0            -0             = 
   117 r10[8]                      0            -0             = 
   118 r10[9]                      0            -0             = 
   119 r10[10]                     0            -0             = 
   120 r10[11]                     0            -0             = 
   121 r10[12]                     0            -0             = 
   122 r11[1]                      0            -0             = 
   123 r11[2]                      0            -0             = 
   124 r11[3]                      0            -0             = 
   125 r11[4]                      0            -0             = 
   126 r11[5]                      0            -0             = 
   127 r11[6]                      0            -0             = 
   128 r11[7]                      0            -0             = 
   129 r11[8]                      0            -0             = 
   130 r11[9]                      0            -0             = 
   131 r11[10]                     0            -0             = 
   132 r11[11]                     0            -0             = 
   133 r11[12]                     0            -0             = 
   134 r12[1]                      0            -0             = 
   135 r12[2]                      0            -0             = 
   136 r12[3]                      0            -0             = 
   137 r12[4]                      0            -0             = 
   138 r12[5]                      0            -0             = 
   139 r12[6]                      0            -0             = 
   140 r12[7]                      0            -0             = 
   141 r12[8]                      0            -0             = 
   142 r12[9]                      0            -0             = 
   143 r12[10]                     0            -0             = 
   144 r12[11]                     0            -0             = 
   145 r12[12]                     0            -0             = 
   146 r13[1]                      0            -0             = 
   147 r13[2]                      0            -0             = 
   148 r13[3]                      0            -0             = 
   149 r13[4]                      0            -0             = 
   150 r13[5]                      0            -0             = 
   151 r13[6]                      0            -0             = 
   152 r13[7]                      0            -0             = 
   153 r13[8]                      0            -0             = 
   154 r13[9]                      0            -0             = 
   155 r13[10]                     0            -0             = 
   156 r13[11]                     0            -0             = 
   157 r13[12]                     0            -0             = 
   158 r14[1]                      0            -0             = 
   159 r14[2]                      0            -0             = 
   160 r14[3]                      0            -0             = 
   161 r14[4]                      0            -0             = 
   162 r14[5]                      0            -0             = 
   163 r14[6]                      0            -0             = 
   164 r14[7]                      0            -0             = 
   165 r14[8]                      0            -0             = 
   166 r14[9]                      0            -0             = 
   167 r14[10]                     0            -0             = 
   168 r14[11]                     0            -0             = 
   169 r14[12]                     0            -0             = 
   170 r15[1]                      0            -0             = 
   171 r15[2]                      0            -0             = 
   172 r15[3]                      0            -0             = 
   173 r15[4]                      0            -0             = 
   174 r15[5]                      0            -0             = 
   175 r15[6]                      0            -0             = 
   176 r15[7]                      0            -0             = 
   177 r15[8]                      0            -0             = 
   178 r15[9]                      0            -0             = 
   179 r15[10]                     0            -0             = 
   180 r15[11]                     0            -0             = 
   181 r15[12]                     0            -0             = 

   No. Column name       Activity     Lower bound   Upper bound
------ ------------    ------------- ------------- -------------
     1 x[1,rvenus]  *            308             0               
     2 x[1,cvenus]  *              0             0               
     3 x[1,ivenus]  *              0             0               
     4 x[2,rvenus]  *              0             0               
     5 x[2,cvenus]  *              0             0               
     6 x[2,ivenus]  *              0             0               
     7 x[3,rvenus]  *              0             0               
     8 x[3,cvenus]  *              0             0               
     9 x[3,ivenus]  *              0             0               
    10 x[4,rvenus]  *              0             0               
    11 x[4,cvenus]  *              0             0               
    12 x[4,ivenus]  *              0             0               
    13 x[5,rvenus]  *            422             0               
    14 x[5,cvenus]  *              0             0               
    15 x[5,ivenus]  *              0             0               
    16 x[6,rvenus]  *            422             0               
    17 x[6,cvenus]  *              0             0               
    18 x[6,ivenus]  *              0             0               
    19 x[7,rvenus]  *              0             0               
    20 x[7,cvenus]  *              0             0               
    21 x[7,ivenus]  *            200             0               
    22 x[8,rvenus]  *              0             0               
    23 x[8,cvenus]  *              0             0               
    24 x[8,ivenus]  *           1000             0               
    25 x[9,rvenus]  *              0             0               
    26 x[9,cvenus]  *              0             0               
    27 x[9,ivenus]  *              0             0               
    28 x[10,rvenus] *              0             0               
    29 x[10,cvenus] *              0             0               
    30 x[10,ivenus] *              0             0               
    31 x[11,rvenus] *            308             0               
    32 x[11,cvenus] *              0             0               
    33 x[11,ivenus] *              0             0               
    34 x[12,rvenus] *            308             0               
    35 x[12,cvenus] *              0             0               
    36 x[12,ivenus] *              0             0               
    37 y[1,rmarth]  *              0             0               
    38 y[1,cmarth]  *              0             0               
    39 y[1,imarth]  *           1000             0               
    40 y[2,rmarth]  *              0             0               
    41 y[2,cmarth]  *            850             0               
    42 y[2,imarth]  *              0             0               
    43 y[3,rmarth]  *              0             0               
    44 y[3,cmarth]  *            850             0               
    45 y[3,imarth]  *              0             0               
    46 y[4,rmarth]  *              0             0               
    47 y[4,cmarth]  *            850             0               
    48 y[4,imarth]  *              0             0               
    49 y[5,rmarth]  *              0             0               
    50 y[5,cmarth]  *            656             0               
    51 y[5,imarth]  *              0             0               
    52 y[6,rmarth]  *              0             0               
    53 y[6,cmarth]  *            656             0               
    54 y[6,imarth]  *              0             0               
    55 y[7,rmarth]  *              0             0               
    56 y[7,cmarth]  *              0             0               
    57 y[7,imarth]  *           1000             0               
    58 y[8,rmarth]  *              0             0               
    59 y[8,cmarth]  *              0             0               
    60 y[8,imarth]  *            200             0               
    61 y[9,rmarth]  *              0             0               
    62 y[9,cmarth]  *            850             0               
    63 y[9,imarth]  *              0             0               
    64 y[10,rmarth] *              0             0               
    65 y[10,cmarth] *            850             0               
    66 y[10,imarth] *              0             0               
    67 y[11,rmarth] *              0             0               
    68 y[11,cmarth] *              0             0               
    69 y[11,imarth] *           1000             0               
    70 y[12,rmarth] *              0             0               
    71 y[12,cmarth] *              0             0               
    72 y[12,imarth] *           1000             0               
    73 z[1,rmercury]
                    *              0             0               
    74 z[1,cmercury]
                    *              0             0               
    75 z[1,imercury]
                    *              0             0               
    76 z[2,rmercury]
                    *              0             0               
    77 z[2,cmercury]
                    *              0             0               
    78 z[2,imercury]
                    *              0             0               
    79 z[3,rmercury]
                    *              0             0               
    80 z[3,cmercury]
                    *              0             0               
    81 z[3,imercury]
                    *              0             0               
    82 z[4,rmercury]
                    *              0             0               
    83 z[4,cmercury]
                    *              0             0               
    84 z[4,imercury]
                    *              0             0               
    85 z[5,rmercury]
                    *              0             0               
    86 z[5,cmercury]
                    *              0             0               
    87 z[5,imercury]
                    *              0             0               
    88 z[6,rmercury]
                    *              0             0               
    89 z[6,cmercury]
                    *              0             0               
    90 z[6,imercury]
                    *              0             0               
    91 z[7,rmercury]
                    *              0             0               
    92 z[7,cmercury]
                    *              0             0               
    93 z[7,imercury]
                    *              0             0               
    94 z[8,rmercury]
                    *              0             0               
    95 z[8,cmercury]
                    *              0             0               
    96 z[8,imercury]
                    *              0             0               
    97 z[9,rmercury]
                    *              0             0               
    98 z[9,cmercury]
                    *              0             0               
    99 z[9,imercury]
                    *              0             0               
   100 z[10,rmercury]
                    *              0             0               
   101 z[10,cmercury]
                    *              0             0               
   102 z[10,imercury]
                    *              0             0               
   103 z[11,rmercury]
                    *              0             0               
   104 z[11,cmercury]
                    *              0             0               
   105 z[11,imercury]
                    *              0             0               
   106 z[12,rmercury]
                    *              0             0               
   107 z[12,cmercury]
                    *              0             0               
   108 z[12,imercury]
                    *              0             0               
   109 w[1,rvenus]  *            308             0               
   110 w[1,rmarth]  *              0             0               
   111 w[1,rmercury]
                    *              0             0               
   112 w[2,rvenus]  *              0             0               
   113 w[2,rmarth]  *              0             0               
   114 w[2,rmercury]
                    *              0             0               
   115 w[3,rvenus]  *              0             0               
   116 w[3,rmarth]  *              0             0               
   117 w[3,rmercury]
                    *              0             0               
   118 w[4,rvenus]  *              0             0               
   119 w[4,rmarth]  *              0             0               
   120 w[4,rmercury]
                    *              0             0               
   121 w[5,rvenus]  *            422             0               
   122 w[5,rmarth]  *              0             0               
   123 w[5,rmercury]
                    *              0             0               
   124 w[6,rvenus]  *            422             0               
   125 w[6,rmarth]  *              0             0               
   126 w[6,rmercury]
                    *              0             0               
   127 w[7,rvenus]  *              0             0               
   128 w[7,rmarth]  *              0             0               
   129 w[7,rmercury]
                    *              0             0               
   130 w[8,rvenus]  *              0             0               
   131 w[8,rmarth]  *              0             0               
   132 w[8,rmercury]
                    *              0             0               
   133 w[9,rvenus]  *              0             0               
   134 w[9,rmarth]  *              0             0               
   135 w[9,rmercury]
                    *              0             0               
   136 w[10,rvenus] *              0             0               
   137 w[10,rmarth] *              0             0               
   138 w[10,rmercury]
                    *              0             0               
   139 w[11,rvenus] *            308             0               
   140 w[11,rmarth] *              0             0               
   141 w[11,rmercury]
                    *              0             0               
   142 w[12,rvenus] *            308             0               
   143 w[12,rmarth] *              0             0               
   144 w[12,rmercury]
                    *              0             0               
   145 t[1,cvenus]  *              0             0               
   146 t[1,cmarth]  *              0             0               
   147 t[1,cmercury]
                    *              0             0               
   148 t[2,cvenus]  *              0             0               
   149 t[2,cmarth]  *            850             0               
   150 t[2,cmercury]
                    *              0             0               
   151 t[3,cvenus]  *              0             0               
   152 t[3,cmarth]  *            850             0               
   153 t[3,cmercury]
                    *              0             0               
   154 t[4,cvenus]  *              0             0               
   155 t[4,cmarth]  *            850             0               
   156 t[4,cmercury]
                    *              0             0               
   157 t[5,cvenus]  *              0             0               
   158 t[5,cmarth]  *            656             0               
   159 t[5,cmercury]
                    *              0             0               
   160 t[6,cvenus]  *              0             0               
   161 t[6,cmarth]  *            656             0               
   162 t[6,cmercury]
                    *              0             0               
   163 t[7,cvenus]  *              0             0               
   164 t[7,cmarth]  *              0             0               
   165 t[7,cmercury]
                    *              0             0               
   166 t[8,cvenus]  *              0             0               
   167 t[8,cmarth]  *              0             0               
   168 t[8,cmercury]
                    *              0             0               
   169 t[9,cvenus]  *              0             0               
   170 t[9,cmarth]  *            850             0               
   171 t[9,cmercury]
                    *              0             0               
   172 t[10,cvenus] *              0             0               
   173 t[10,cmarth] *            850             0               
   174 t[10,cmercury]
                    *              0             0               
   175 t[11,cvenus] *              0             0               
   176 t[11,cmarth] *              0             0               
   177 t[11,cmercury]
                    *              0             0               
   178 t[12,cvenus] *              0             0               
   179 t[12,cmarth] *              0             0               
   180 t[12,cmercury]
                    *              0             0               
   181 u[1,ivenus]  *              0             0               
   182 u[1,imarth]  *           1000             0               
   183 u[1,imercury]
                    *              0             0               
   184 u[2,ivenus]  *              0             0               
   185 u[2,imarth]  *              0             0               
   186 u[2,imercury]
                    *              0             0               
   187 u[3,ivenus]  *              0             0               
   188 u[3,imarth]  *              0             0               
   189 u[3,imercury]
                    *              0             0               
   190 u[4,ivenus]  *              0             0               
   191 u[4,imarth]  *              0             0               
   192 u[4,imercury]
                    *              0             0               
   193 u[5,ivenus]  *              0             0               
   194 u[5,imarth]  *              0             0               
   195 u[5,imercury]
                    *              0             0               
   196 u[6,ivenus]  *              0             0               
   197 u[6,imarth]  *              0             0               
   198 u[6,imercury]
                    *              0             0               
   199 u[7,ivenus]  *            200             0               
   200 u[7,imarth]  *           1000             0               
   201 u[7,imercury]
                    *              0             0               
   202 u[8,ivenus]  *           1000             0               
   203 u[8,imarth]  *            200             0               
   204 u[8,imercury]
                    *              0             0               
   205 u[9,ivenus]  *              0             0               
   206 u[9,imarth]  *              0             0               
   207 u[9,imercury]
                    *              0             0               
   208 u[10,ivenus] *              0             0               
   209 u[10,imarth] *              0             0               
   210 u[10,imercury]
                    *              0             0               
   211 u[11,ivenus] *              0             0               
   212 u[11,imarth] *           1000             0               
   213 u[11,imercury]
                    *              0             0               
   214 u[12,ivenus] *              0             0               
   215 u[12,imarth] *           1000             0               
   216 u[12,imercury]
                    *              0             0               

Integer feasibility conditions:

KKT.PE: max.abs.err = 0.00e+00 on row 0
        max.rel.err = 0.00e+00 on row 0
        High quality

KKT.PB: max.abs.err = 0.00e+00 on row 0
        max.rel.err = 0.00e+00 on row 0
        High quality

End of output
